(Cost-function, node_ordering) that gave the best result for SCI = (0, 3)
MST
Route #1: 53 58 40 28
Route #2: 21 73 74 22 41 75 56 4 26
Route #3: 39 67 23 72
Route #4: 12 80 68 29 24 25 55 54
Route #5: 77 3 79 78 81 33 50
Route #6: 69 1 51 9 71 65 35 34 76
Route #7: 13 87 97 95 94
Route #8: 2 57 15 43 42 100 37 98 59 96
Route #9: 52 82 8 46 45 84 5 83 18
Route #10: 7 48 47 36 49 64
Route #11: 88 62 19 11 63 90 32 10
Route #12: 20 66 30 70 31 27
Route #13: 61 16 85 93 99 6
Route #14: 89 60 17 86 38 14 44 91 92
Cost 1141.18
VALID solution
Total execution time = 7.59921 s
